10351.0
1 1 1 1 1 1 1 1 1 1 
69 70 71 72 73 75 76 77 78 79 
19 20 21 22 24 25 
7 8 9 10 11 12 13 14 15 16 17 18 96 98 99 
23 26 27 28 29 30 31 32 33 34 35 36 37 38 50 51 
80 81 82 83 84 85 86 87 88 89 90 93 94 95 97 
61 62 64 65 66 
39 40 43 52 53 54 55 56 57 58 59 60 63 67 68 
2 3 4 5 6 
41 42 44 45 46 47 48 49 
0 1 74 91 92 
